\* The Backhauling Problem *\
Maximize
Total_Travel_Profit: 14999.1529088 X_(10,_0,_0) + 14999.1529088 X_(10,_0,_1)
 + 14999.1529088 X_(10,_0,_2) + 14999.1529088 X_(10,_0,_3)
 + 14999.1529088 X_(10,_0,_4) + 14999.1529088 X_(10,_0,_7)
 + 14999.1529088 X_(10,_0,_8) + 11984.1571996 X_(10,_1,_0)
 + 11984.1571996 X_(10,_1,_1) + 11984.1571996 X_(10,_1,_2)
 + 11984.1571996 X_(10,_1,_3) + 11984.1571996 X_(10,_1,_4)
 + 11984.1571996 X_(10,_1,_7) + 11984.1571996 X_(10,_1,_8)
 - 29116.0027054 X_(10,_10,_0) - 23263.3639756 X_(10,_10,_1)
 - 17726.2367781 X_(10,_10,_2) - 22611.8262644 X_(10,_10,_3)
 - 26108.5596947 X_(10,_10,_4) - 5035.16862053 X_(10,_10,_7)
 - 10735.7135548 X_(10,_10,_8) + 9131.69773417 X_(10,_2,_0)
 + 9131.69773417 X_(10,_2,_1) + 9131.69773417 X_(10,_2,_2)
 + 9131.69773417 X_(10,_2,_3) + 9131.69773417 X_(10,_2,_4)
 + 9131.69773417 X_(10,_2,_7) + 9131.69773417 X_(10,_2,_8)
 + 11648.5165604 X_(10,_3,_0) + 11648.5165604 X_(10,_3,_1)
 + 11648.5165604 X_(10,_3,_2) + 11648.5165604 X_(10,_3,_3)
 + 11648.5165604 X_(10,_3,_4) + 11648.5165604 X_(10,_3,_7)
 + 11648.5165604 X_(10,_3,_8) + 13449.8640852 X_(10,_4,_0)
 + 13449.8640852 X_(10,_4,_1) + 13449.8640852 X_(10,_4,_2)
 + 13449.8640852 X_(10,_4,_3) + 13449.8640852 X_(10,_4,_4)
 + 13449.8640852 X_(10,_4,_7) + 13449.8640852 X_(10,_4,_8)
 + 799.404517756 X_(10,_5,_0) + 799.404517756 X_(10,_5,_1)
 + 799.404517756 X_(10,_5,_2) + 799.404517756 X_(10,_5,_3)
 + 799.404517756 X_(10,_5,_4) + 799.404517756 X_(10,_5,_7)
 + 799.404517756 X_(10,_5,_8) + 548.876779535 X_(10,_6,_0)
 + 548.876779535 X_(10,_6,_1) + 548.876779535 X_(10,_6,_2)
 + 548.876779535 X_(10,_6,_3) + 548.876779535 X_(10,_6,_4)
 + 548.876779535 X_(10,_6,_7) + 548.876779535 X_(10,_6,_8)
 + 2593.87474391 X_(10,_7,_0) + 2593.87474391 X_(10,_7,_1)
 + 2593.87474391 X_(10,_7,_2) + 2593.87474391 X_(10,_7,_3)
 + 2593.87474391 X_(10,_7,_4) + 2593.87474391 X_(10,_7,_7)
 + 2593.87474391 X_(10,_7,_8) + 5530.51910398 X_(10,_8,_0)
 + 5530.51910398 X_(10,_8,_1) + 5530.51910398 X_(10,_8,_2)
 + 5530.51910398 X_(10,_8,_3) + 5530.51910398 X_(10,_8,_4)
 + 5530.51910398 X_(10,_8,_7) + 5530.51910398 X_(10,_8,_8)
 + 233.508230285 X_(10,_9,_0) + 233.508230285 X_(10,_9,_1)
 + 233.508230285 X_(10,_9,_2) + 233.508230285 X_(10,_9,_3)
 + 233.508230285 X_(10,_9,_4) + 233.508230285 X_(10,_9,_7)
 + 233.508230285 X_(10,_9,_8) + 5200.99885661 X_(5,_0,_0)
 + 5200.99885661 X_(5,_0,_1) + 5200.99885661 X_(5,_0,_2)
 + 5200.99885661 X_(5,_0,_3) + 5200.99885661 X_(5,_0,_4)
 + 5200.99885661 X_(5,_0,_7) + 5200.99885661 X_(5,_0,_8)
 + 3336.48861876 X_(5,_1,_0) + 3336.48861876 X_(5,_1,_1)
 + 3336.48861876 X_(5,_1,_2) + 3336.48861876 X_(5,_1,_3)
 + 3336.48861876 X_(5,_1,_4) + 3336.48861876 X_(5,_1,_7)
 + 3336.48861876 X_(5,_1,_8) - 28316.5981876 X_(5,_10,_0)
 - 22463.9594579 X_(5,_10,_1) - 16926.8322603 X_(5,_10,_2)
 - 21812.4217466 X_(5,_10,_3) - 25309.155177 X_(5,_10,_4)
 - 4235.76410278 X_(5,_10,_7) - 9936.30903703 X_(5,_10,_8)
 + 5033.69536351 X_(5,_2,_0) + 5033.69536351 X_(5,_2,_1)
 + 5033.69536351 X_(5,_2,_2) + 5033.69536351 X_(5,_2,_3)
 + 5033.69536351 X_(5,_2,_4) + 5033.69536351 X_(5,_2,_7)
 + 5033.69536351 X_(5,_2,_8) + 3169.18622318 X_(5,_3,_0)
 + 3169.18622318 X_(5,_3,_1) + 3169.18622318 X_(5,_3,_2)
 + 3169.18622318 X_(5,_3,_3) + 3169.18622318 X_(5,_3,_4)
 + 3169.18622318 X_(5,_3,_7) + 3169.18622318 X_(5,_3,_8)
 + 4443.51332358 X_(5,_4,_0) + 4443.51332358 X_(5,_4,_1)
 + 4443.51332358 X_(5,_4,_2) + 4443.51332358 X_(5,_4,_3)
 + 4443.51332358 X_(5,_4,_4) + 4443.51332358 X_(5,_4,_7)
 + 4443.51332358 X_(5,_4,_8) + 262.493735129 X_(5,_6,_0)
 + 262.493735129 X_(5,_6,_1) + 262.493735129 X_(5,_6,_2)
 + 262.493735129 X_(5,_6,_3) + 262.493735129 X_(5,_6,_4)
 + 262.493735129 X_(5,_6,_7) + 262.493735129 X_(5,_6,_8)
 + 16082.1909652 X_(5,_7,_0) + 16082.1909652 X_(5,_7,_1)
 + 16082.1909652 X_(5,_7,_2) + 16082.1909652 X_(5,_7,_3)
 + 16082.1909652 X_(5,_7,_4) + 16082.1909652 X_(5,_7,_7)
 + 16082.1909652 X_(5,_7,_8) + 17545.2785839 X_(5,_8,_0)
 + 17545.2785839 X_(5,_8,_1) + 17545.2785839 X_(5,_8,_2)
 + 17545.2785839 X_(5,_8,_3) + 17545.2785839 X_(5,_8,_4)
 + 17545.2785839 X_(5,_8,_7) + 17545.2785839 X_(5,_8,_8)
 + 987.322744156 X_(5,_9,_0) + 987.322744156 X_(5,_9,_1)
 + 987.322744156 X_(5,_9,_2) + 987.322744156 X_(5,_9,_3)
 + 987.322744156 X_(5,_9,_4) + 987.322744156 X_(5,_9,_7)
 + 987.322744156 X_(5,_9,_8) + 7913.6359198 X_(6,_0,_0)
 + 7913.6359198 X_(6,_0,_1) + 7913.6359198 X_(6,_0,_2)
 + 7913.6359198 X_(6,_0,_3) + 7913.6359198 X_(6,_0,_4)
 + 7913.6359198 X_(6,_0,_7) + 7913.6359198 X_(6,_0,_8)
 + 4523.64785174 X_(6,_1,_0) + 4523.64785174 X_(6,_1,_1)
 + 4523.64785174 X_(6,_1,_2) + 4523.64785174 X_(6,_1,_3)
 + 4523.64785174 X_(6,_1,_4) + 4523.64785174 X_(6,_1,_7)
 + 4523.64785174 X_(6,_1,_8) - 28567.1259258 X_(6,_10,_0)
 - 22714.4871961 X_(6,_10,_1) - 17177.3599986 X_(6,_10,_2)
 - 22062.9494848 X_(6,_10,_3) - 25559.6829152 X_(6,_10,_4)
 - 4486.291841 X_(6,_10,_7) - 10186.8367753 X_(6,_10,_8)
 + 3027.40431324 X_(6,_2,_0) + 3027.40431324 X_(6,_2,_1)
 + 3027.40431324 X_(6,_2,_2) + 3027.40431324 X_(6,_2,_3)
 + 3027.40431324 X_(6,_2,_4) + 3027.40431324 X_(6,_2,_7)
 + 3027.40431324 X_(6,_2,_8) + 2467.23286132 X_(6,_3,_0)
 + 2467.23286132 X_(6,_3,_1) + 2467.23286132 X_(6,_3,_2)
 + 2467.23286132 X_(6,_3,_3) + 2467.23286132 X_(6,_3,_4)
 + 2467.23286132 X_(6,_3,_7) + 2467.23286132 X_(6,_3,_8)
 + 4751.85630986 X_(6,_4,_0) + 4751.85630986 X_(6,_4,_1)
 + 4751.85630986 X_(6,_4,_2) + 4751.85630986 X_(6,_4,_3)
 + 4751.85630986 X_(6,_4,_4) + 4751.85630986 X_(6,_4,_7)
 + 4751.85630986 X_(6,_4,_8) + 262.493735129 X_(6,_5,_0)
 + 262.493735129 X_(6,_5,_1) + 262.493735129 X_(6,_5,_2)
 + 262.493735129 X_(6,_5,_3) + 262.493735129 X_(6,_5,_4)
 + 262.493735129 X_(6,_5,_7) + 262.493735129 X_(6,_5,_8)
 + 11743.1322216 X_(6,_7,_0) + 11743.1322216 X_(6,_7,_1)
 + 11743.1322216 X_(6,_7,_2) + 11743.1322216 X_(6,_7,_3)
 + 11743.1322216 X_(6,_7,_4) + 11743.1322216 X_(6,_7,_7)
 + 11743.1322216 X_(6,_7,_8) + 13082.8987449 X_(6,_8,_0)
 + 13082.8987449 X_(6,_8,_1) + 13082.8987449 X_(6,_8,_2)
 + 13082.8987449 X_(6,_8,_3) + 13082.8987449 X_(6,_8,_4)
 + 13082.8987449 X_(6,_8,_7) + 13082.8987449 X_(6,_8,_8)
 + 726.369398409 X_(6,_9,_0) + 726.369398409 X_(6,_9,_1)
 + 726.369398409 X_(6,_9,_2) + 726.369398409 X_(6,_9,_3)
 + 726.369398409 X_(6,_9,_4) + 726.369398409 X_(6,_9,_7)
 + 726.369398409 X_(6,_9,_8) + 18761.9526569 X_(9,_0,_0)
 + 18761.9526569 X_(9,_0,_1) + 18761.9526569 X_(9,_0,_2)
 + 18761.9526569 X_(9,_0,_3) + 18761.9526569 X_(9,_0,_4)
 + 18761.9526569 X_(9,_0,_7) + 18761.9526569 X_(9,_0,_8)
 + 15602.7889043 X_(9,_1,_0) + 15602.7889043 X_(9,_1,_1)
 + 15602.7889043 X_(9,_1,_2) + 15602.7889043 X_(9,_1,_3)
 + 15602.7889043 X_(9,_1,_4) + 15602.7889043 X_(9,_1,_7)
 + 15602.7889043 X_(9,_1,_8) - 28882.4944751 X_(9,_10,_0)
 - 23029.8557454 X_(9,_10,_1) - 17492.7285478 X_(9,_10,_2)
 - 22378.3180341 X_(9,_10,_3) - 25875.0514644 X_(9,_10,_4)
 - 4801.66039025 X_(9,_10,_7) - 10502.2053245 X_(9,_10,_8)
 + 12748.6453853 X_(9,_2,_0) + 12748.6453853 X_(9,_2,_1)
 + 12748.6453853 X_(9,_2,_2) + 12748.6453853 X_(9,_2,_3)
 + 12748.6453853 X_(9,_2,_4) + 12748.6453853 X_(9,_2,_7)
 + 12748.6453853 X_(9,_2,_8) + 14409.9791325 X_(9,_3,_0)
 + 14409.9791325 X_(9,_3,_1) + 14409.9791325 X_(9,_3,_2)
 + 14409.9791325 X_(9,_3,_3) + 14409.9791325 X_(9,_3,_4)
 + 14409.9791325 X_(9,_3,_7) + 14409.9791325 X_(9,_3,_8)
 + 15808.4146398 X_(9,_4,_0) + 15808.4146398 X_(9,_4,_1)
 + 15808.4146398 X_(9,_4,_2) + 15808.4146398 X_(9,_4,_3)
 + 15808.4146398 X_(9,_4,_4) + 15808.4146398 X_(9,_4,_7)
 + 15808.4146398 X_(9,_4,_8) + 987.322744156 X_(9,_5,_0)
 + 987.322744156 X_(9,_5,_1) + 987.322744156 X_(9,_5,_2)
 + 987.322744156 X_(9,_5,_3) + 987.322744156 X_(9,_5,_4)
 + 987.322744156 X_(9,_5,_7) + 987.322744156 X_(9,_5,_8)
 + 726.369398409 X_(9,_6,_0) + 726.369398409 X_(9,_6,_1)
 + 726.369398409 X_(9,_6,_2) + 726.369398409 X_(9,_6,_3)
 + 726.369398409 X_(9,_6,_4) + 726.369398409 X_(9,_6,_7)
 + 726.369398409 X_(9,_6,_8) + 1899.90233128 X_(9,_7,_0)
 + 1899.90233128 X_(9,_7,_1) + 1899.90233128 X_(9,_7,_2)
 + 1899.90233128 X_(9,_7,_3) + 1899.90233128 X_(9,_7,_4)
 + 1899.90233128 X_(9,_7,_7) + 1899.90233128 X_(9,_7,_8)
 + 1794.56369529 X_(9,_8,_0) + 1794.56369529 X_(9,_8,_1)
 + 1794.56369529 X_(9,_8,_2) + 1794.56369529 X_(9,_8,_3)
 + 1794.56369529 X_(9,_8,_4) + 1794.56369529 X_(9,_8,_7)
 + 1794.56369529 X_(9,_8,_8)
Subject To
From_Parcel_Location_Going_Somewhere_0: X_(10,_0,_0) + X_(10,_0,_1)
 + X_(10,_0,_2) + X_(10,_0,_3) + X_(10,_0,_4) + X_(10,_0,_7) + X_(10,_0,_8)
 + X_(5,_0,_0) + X_(5,_0,_1) + X_(5,_0,_2) + X_(5,_0,_3) + X_(5,_0,_4)
 + X_(5,_0,_7) + X_(5,_0,_8) + X_(6,_0,_0) + X_(6,_0,_1) + X_(6,_0,_2)
 + X_(6,_0,_3) + X_(6,_0,_4) + X_(6,_0,_7) + X_(6,_0,_8) + X_(9,_0,_0)
 + X_(9,_0,_1) + X_(9,_0,_2) + X_(9,_0,_3) + X_(9,_0,_4) + X_(9,_0,_7)
 + X_(9,_0,_8) = 1
From_Parcel_Location_Going_Somewhere_1: X_(10,_1,_0) + X_(10,_1,_1)
 + X_(10,_1,_2) + X_(10,_1,_3) + X_(10,_1,_4) + X_(10,_1,_7) + X_(10,_1,_8)
 + X_(5,_1,_0) + X_(5,_1,_1) + X_(5,_1,_2) + X_(5,_1,_3) + X_(5,_1,_4)
 + X_(5,_1,_7) + X_(5,_1,_8) + X_(6,_1,_0) + X_(6,_1,_1) + X_(6,_1,_2)
 + X_(6,_1,_3) + X_(6,_1,_4) + X_(6,_1,_7) + X_(6,_1,_8) + X_(9,_1,_0)
 + X_(9,_1,_1) + X_(9,_1,_2) + X_(9,_1,_3) + X_(9,_1,_4) + X_(9,_1,_7)
 + X_(9,_1,_8) = 1
From_Parcel_Location_Going_Somewhere_10: X_(10,_10,_0) + X_(10,_10,_1)
 + X_(10,_10,_2) + X_(10,_10,_3) + X_(10,_10,_4) + X_(10,_10,_7)
 + X_(10,_10,_8) + X_(5,_10,_0) + X_(5,_10,_1) + X_(5,_10,_2) + X_(5,_10,_3)
 + X_(5,_10,_4) + X_(5,_10,_7) + X_(5,_10,_8) + X_(6,_10,_0) + X_(6,_10,_1)
 + X_(6,_10,_2) + X_(6,_10,_3) + X_(6,_10,_4) + X_(6,_10,_7) + X_(6,_10,_8)
 + X_(9,_10,_0) + X_(9,_10,_1) + X_(9,_10,_2) + X_(9,_10,_3) + X_(9,_10,_4)
 + X_(9,_10,_7) + X_(9,_10,_8) = 1
From_Parcel_Location_Going_Somewhere_2: X_(10,_2,_0) + X_(10,_2,_1)
 + X_(10,_2,_2) + X_(10,_2,_3) + X_(10,_2,_4) + X_(10,_2,_7) + X_(10,_2,_8)
 + X_(5,_2,_0) + X_(5,_2,_1) + X_(5,_2,_2) + X_(5,_2,_3) + X_(5,_2,_4)
 + X_(5,_2,_7) + X_(5,_2,_8) + X_(6,_2,_0) + X_(6,_2,_1) + X_(6,_2,_2)
 + X_(6,_2,_3) + X_(6,_2,_4) + X_(6,_2,_7) + X_(6,_2,_8) + X_(9,_2,_0)
 + X_(9,_2,_1) + X_(9,_2,_2) + X_(9,_2,_3) + X_(9,_2,_4) + X_(9,_2,_7)
 + X_(9,_2,_8) = 1
From_Parcel_Location_Going_Somewhere_3: X_(10,_3,_0) + X_(10,_3,_1)
 + X_(10,_3,_2) + X_(10,_3,_3) + X_(10,_3,_4) + X_(10,_3,_7) + X_(10,_3,_8)
 + X_(5,_3,_0) + X_(5,_3,_1) + X_(5,_3,_2) + X_(5,_3,_3) + X_(5,_3,_4)
 + X_(5,_3,_7) + X_(5,_3,_8) + X_(6,_3,_0) + X_(6,_3,_1) + X_(6,_3,_2)
 + X_(6,_3,_3) + X_(6,_3,_4) + X_(6,_3,_7) + X_(6,_3,_8) + X_(9,_3,_0)
 + X_(9,_3,_1) + X_(9,_3,_2) + X_(9,_3,_3) + X_(9,_3,_4) + X_(9,_3,_7)
 + X_(9,_3,_8) = 1
From_Parcel_Location_Going_Somewhere_4: X_(10,_4,_0) + X_(10,_4,_1)
 + X_(10,_4,_2) + X_(10,_4,_3) + X_(10,_4,_4) + X_(10,_4,_7) + X_(10,_4,_8)
 + X_(5,_4,_0) + X_(5,_4,_1) + X_(5,_4,_2) + X_(5,_4,_3) + X_(5,_4,_4)
 + X_(5,_4,_7) + X_(5,_4,_8) + X_(6,_4,_0) + X_(6,_4,_1) + X_(6,_4,_2)
 + X_(6,_4,_3) + X_(6,_4,_4) + X_(6,_4,_7) + X_(6,_4,_8) + X_(9,_4,_0)
 + X_(9,_4,_1) + X_(9,_4,_2) + X_(9,_4,_3) + X_(9,_4,_4) + X_(9,_4,_7)
 + X_(9,_4,_8) = 1
From_Parcel_Location_Going_Somewhere_5: X_(10,_5,_0) + X_(10,_5,_1)
 + X_(10,_5,_2) + X_(10,_5,_3) + X_(10,_5,_4) + X_(10,_5,_7) + X_(10,_5,_8)
 + X_(5,_5,_0) + X_(5,_5,_1) + X_(5,_5,_2) + X_(5,_5,_3) + X_(5,_5,_4)
 + X_(5,_5,_7) + X_(5,_5,_8) + X_(6,_5,_0) + X_(6,_5,_1) + X_(6,_5,_2)
 + X_(6,_5,_3) + X_(6,_5,_4) + X_(6,_5,_7) + X_(6,_5,_8) + X_(9,_5,_0)
 + X_(9,_5,_1) + X_(9,_5,_2) + X_(9,_5,_3) + X_(9,_5,_4) + X_(9,_5,_7)
 + X_(9,_5,_8) = 1
From_Parcel_Location_Going_Somewhere_6: X_(10,_6,_0) + X_(10,_6,_1)
 + X_(10,_6,_2) + X_(10,_6,_3) + X_(10,_6,_4) + X_(10,_6,_7) + X_(10,_6,_8)
 + X_(5,_6,_0) + X_(5,_6,_1) + X_(5,_6,_2) + X_(5,_6,_3) + X_(5,_6,_4)
 + X_(5,_6,_7) + X_(5,_6,_8) + X_(6,_6,_0) + X_(6,_6,_1) + X_(6,_6,_2)
 + X_(6,_6,_3) + X_(6,_6,_4) + X_(6,_6,_7) + X_(6,_6,_8) + X_(9,_6,_0)
 + X_(9,_6,_1) + X_(9,_6,_2) + X_(9,_6,_3) + X_(9,_6,_4) + X_(9,_6,_7)
 + X_(9,_6,_8) = 1
From_Parcel_Location_Going_Somewhere_7: X_(10,_7,_0) + X_(10,_7,_1)
 + X_(10,_7,_2) + X_(10,_7,_3) + X_(10,_7,_4) + X_(10,_7,_7) + X_(10,_7,_8)
 + X_(5,_7,_0) + X_(5,_7,_1) + X_(5,_7,_2) + X_(5,_7,_3) + X_(5,_7,_4)
 + X_(5,_7,_7) + X_(5,_7,_8) + X_(6,_7,_0) + X_(6,_7,_1) + X_(6,_7,_2)
 + X_(6,_7,_3) + X_(6,_7,_4) + X_(6,_7,_7) + X_(6,_7,_8) + X_(9,_7,_0)
 + X_(9,_7,_1) + X_(9,_7,_2) + X_(9,_7,_3) + X_(9,_7,_4) + X_(9,_7,_7)
 + X_(9,_7,_8) = 1
From_Parcel_Location_Going_Somewhere_8: X_(10,_8,_0) + X_(10,_8,_1)
 + X_(10,_8,_2) + X_(10,_8,_3) + X_(10,_8,_4) + X_(10,_8,_7) + X_(10,_8,_8)
 + X_(5,_8,_0) + X_(5,_8,_1) + X_(5,_8,_2) + X_(5,_8,_3) + X_(5,_8,_4)
 + X_(5,_8,_7) + X_(5,_8,_8) + X_(6,_8,_0) + X_(6,_8,_1) + X_(6,_8,_2)
 + X_(6,_8,_3) + X_(6,_8,_4) + X_(6,_8,_7) + X_(6,_8,_8) + X_(9,_8,_0)
 + X_(9,_8,_1) + X_(9,_8,_2) + X_(9,_8,_3) + X_(9,_8,_4) + X_(9,_8,_7)
 + X_(9,_8,_8) = 1
From_Parcel_Location_Going_Somewhere_9: X_(10,_9,_0) + X_(10,_9,_1)
 + X_(10,_9,_2) + X_(10,_9,_3) + X_(10,_9,_4) + X_(10,_9,_7) + X_(10,_9,_8)
 + X_(5,_9,_0) + X_(5,_9,_1) + X_(5,_9,_2) + X_(5,_9,_3) + X_(5,_9,_4)
 + X_(5,_9,_7) + X_(5,_9,_8) + X_(6,_9,_0) + X_(6,_9,_1) + X_(6,_9,_2)
 + X_(6,_9,_3) + X_(6,_9,_4) + X_(6,_9,_7) + X_(6,_9,_8) + X_(9,_9,_0)
 + X_(9,_9,_1) + X_(9,_9,_2) + X_(9,_9,_3) + X_(9,_9,_4) + X_(9,_9,_7)
 + X_(9,_9,_8) = 1
Things_can_be_Put_in_One_Truck_at_Most_(0,_10): X_(10,_0,_0) + X_(10,_1,_0)
 + X_(10,_10,_0) + X_(10,_2,_0) + X_(10,_3,_0) + X_(10,_4,_0) + X_(10,_5,_0)
 + X_(10,_6,_0) + X_(10,_7,_0) + X_(10,_8,_0) + X_(10,_9,_0) <= 1
Things_can_be_Put_in_One_Truck_at_Most_(0,_5): X_(5,_0,_0) + X_(5,_1,_0)
 + X_(5,_10,_0) + X_(5,_2,_0) + X_(5,_3,_0) + X_(5,_4,_0) + X_(5,_5,_0)
 + X_(5,_6,_0) + X_(5,_7,_0) + X_(5,_8,_0) + X_(5,_9,_0) <= 1
Things_can_be_Put_in_One_Truck_at_Most_(0,_6): X_(6,_0,_0) + X_(6,_1,_0)
 + X_(6,_10,_0) + X_(6,_2,_0) + X_(6,_3,_0) + X_(6,_4,_0) + X_(6,_5,_0)
 + X_(6,_6,_0) + X_(6,_7,_0) + X_(6,_8,_0) + X_(6,_9,_0) <= 1
Things_can_be_Put_in_One_Truck_at_Most_(0,_9): X_(9,_0,_0) + X_(9,_1,_0)
 + X_(9,_10,_0) + X_(9,_2,_0) + X_(9,_3,_0) + X_(9,_4,_0) + X_(9,_5,_0)
 + X_(9,_6,_0) + X_(9,_7,_0) + X_(9,_8,_0) + X_(9,_9,_0) <= 1
Things_can_be_Put_in_One_Truck_at_Most_(1,_10): X_(10,_0,_1) + X_(10,_1,_1)
 + X_(10,_10,_1) + X_(10,_2,_1) + X_(10,_3,_1) + X_(10,_4,_1) + X_(10,_5,_1)
 + X_(10,_6,_1) + X_(10,_7,_1) + X_(10,_8,_1) + X_(10,_9,_1) <= 1
Things_can_be_Put_in_One_Truck_at_Most_(1,_5): X_(5,_0,_1) + X_(5,_1,_1)
 + X_(5,_10,_1) + X_(5,_2,_1) + X_(5,_3,_1) + X_(5,_4,_1) + X_(5,_5,_1)
 + X_(5,_6,_1) + X_(5,_7,_1) + X_(5,_8,_1) + X_(5,_9,_1) <= 1
Things_can_be_Put_in_One_Truck_at_Most_(1,_6): X_(6,_0,_1) + X_(6,_1,_1)
 + X_(6,_10,_1) + X_(6,_2,_1) + X_(6,_3,_1) + X_(6,_4,_1) + X_(6,_5,_1)
 + X_(6,_6,_1) + X_(6,_7,_1) + X_(6,_8,_1) + X_(6,_9,_1) <= 1
Things_can_be_Put_in_One_Truck_at_Most_(1,_9): X_(9,_0,_1) + X_(9,_1,_1)
 + X_(9,_10,_1) + X_(9,_2,_1) + X_(9,_3,_1) + X_(9,_4,_1) + X_(9,_5,_1)
 + X_(9,_6,_1) + X_(9,_7,_1) + X_(9,_8,_1) + X_(9,_9,_1) <= 1
Things_can_be_Put_in_One_Truck_at_Most_(2,_10): X_(10,_0,_2) + X_(10,_1,_2)
 + X_(10,_10,_2) + X_(10,_2,_2) + X_(10,_3,_2) + X_(10,_4,_2) + X_(10,_5,_2)
 + X_(10,_6,_2) + X_(10,_7,_2) + X_(10,_8,_2) + X_(10,_9,_2) <= 1
Things_can_be_Put_in_One_Truck_at_Most_(2,_5): X_(5,_0,_2) + X_(5,_1,_2)
 + X_(5,_10,_2) + X_(5,_2,_2) + X_(5,_3,_2) + X_(5,_4,_2) + X_(5,_5,_2)
 + X_(5,_6,_2) + X_(5,_7,_2) + X_(5,_8,_2) + X_(5,_9,_2) <= 1
Things_can_be_Put_in_One_Truck_at_Most_(2,_6): X_(6,_0,_2) + X_(6,_1,_2)
 + X_(6,_10,_2) + X_(6,_2,_2) + X_(6,_3,_2) + X_(6,_4,_2) + X_(6,_5,_2)
 + X_(6,_6,_2) + X_(6,_7,_2) + X_(6,_8,_2) + X_(6,_9,_2) <= 1
Things_can_be_Put_in_One_Truck_at_Most_(2,_9): X_(9,_0,_2) + X_(9,_1,_2)
 + X_(9,_10,_2) + X_(9,_2,_2) + X_(9,_3,_2) + X_(9,_4,_2) + X_(9,_5,_2)
 + X_(9,_6,_2) + X_(9,_7,_2) + X_(9,_8,_2) + X_(9,_9,_2) <= 1
Things_can_be_Put_in_One_Truck_at_Most_(3,_10): X_(10,_0,_3) + X_(10,_1,_3)
 + X_(10,_10,_3) + X_(10,_2,_3) + X_(10,_3,_3) + X_(10,_4,_3) + X_(10,_5,_3)
 + X_(10,_6,_3) + X_(10,_7,_3) + X_(10,_8,_3) + X_(10,_9,_3) <= 1
Things_can_be_Put_in_One_Truck_at_Most_(3,_5): X_(5,_0,_3) + X_(5,_1,_3)
 + X_(5,_10,_3) + X_(5,_2,_3) + X_(5,_3,_3) + X_(5,_4,_3) + X_(5,_5,_3)
 + X_(5,_6,_3) + X_(5,_7,_3) + X_(5,_8,_3) + X_(5,_9,_3) <= 1
Things_can_be_Put_in_One_Truck_at_Most_(3,_6): X_(6,_0,_3) + X_(6,_1,_3)
 + X_(6,_10,_3) + X_(6,_2,_3) + X_(6,_3,_3) + X_(6,_4,_3) + X_(6,_5,_3)
 + X_(6,_6,_3) + X_(6,_7,_3) + X_(6,_8,_3) + X_(6,_9,_3) <= 1
Things_can_be_Put_in_One_Truck_at_Most_(3,_9): X_(9,_0,_3) + X_(9,_1,_3)
 + X_(9,_10,_3) + X_(9,_2,_3) + X_(9,_3,_3) + X_(9,_4,_3) + X_(9,_5,_3)
 + X_(9,_6,_3) + X_(9,_7,_3) + X_(9,_8,_3) + X_(9,_9,_3) <= 1
Things_can_be_Put_in_One_Truck_at_Most_(4,_10): X_(10,_0,_4) + X_(10,_1,_4)
 + X_(10,_10,_4) + X_(10,_2,_4) + X_(10,_3,_4) + X_(10,_4,_4) + X_(10,_5,_4)
 + X_(10,_6,_4) + X_(10,_7,_4) + X_(10,_8,_4) + X_(10,_9,_4) <= 1
Things_can_be_Put_in_One_Truck_at_Most_(4,_5): X_(5,_0,_4) + X_(5,_1,_4)
 + X_(5,_10,_4) + X_(5,_2,_4) + X_(5,_3,_4) + X_(5,_4,_4) + X_(5,_5,_4)
 + X_(5,_6,_4) + X_(5,_7,_4) + X_(5,_8,_4) + X_(5,_9,_4) <= 1
Things_can_be_Put_in_One_Truck_at_Most_(4,_6): X_(6,_0,_4) + X_(6,_1,_4)
 + X_(6,_10,_4) + X_(6,_2,_4) + X_(6,_3,_4) + X_(6,_4,_4) + X_(6,_5,_4)
 + X_(6,_6,_4) + X_(6,_7,_4) + X_(6,_8,_4) + X_(6,_9,_4) <= 1
Things_can_be_Put_in_One_Truck_at_Most_(4,_9): X_(9,_0,_4) + X_(9,_1,_4)
 + X_(9,_10,_4) + X_(9,_2,_4) + X_(9,_3,_4) + X_(9,_4,_4) + X_(9,_5,_4)
 + X_(9,_6,_4) + X_(9,_7,_4) + X_(9,_8,_4) + X_(9,_9,_4) <= 1
Things_can_be_Put_in_One_Truck_at_Most_(7,_10): X_(10,_0,_7) + X_(10,_1,_7)
 + X_(10,_10,_7) + X_(10,_2,_7) + X_(10,_3,_7) + X_(10,_4,_7) + X_(10,_5,_7)
 + X_(10,_6,_7) + X_(10,_7,_7) + X_(10,_8,_7) + X_(10,_9,_7) <= 1
Things_can_be_Put_in_One_Truck_at_Most_(7,_5): X_(5,_0,_7) + X_(5,_1,_7)
 + X_(5,_10,_7) + X_(5,_2,_7) + X_(5,_3,_7) + X_(5,_4,_7) + X_(5,_5,_7)
 + X_(5,_6,_7) + X_(5,_7,_7) + X_(5,_8,_7) + X_(5,_9,_7) <= 1
Things_can_be_Put_in_One_Truck_at_Most_(7,_6): X_(6,_0,_7) + X_(6,_1,_7)
 + X_(6,_10,_7) + X_(6,_2,_7) + X_(6,_3,_7) + X_(6,_4,_7) + X_(6,_5,_7)
 + X_(6,_6,_7) + X_(6,_7,_7) + X_(6,_8,_7) + X_(6,_9,_7) <= 1
Things_can_be_Put_in_One_Truck_at_Most_(7,_9): X_(9,_0,_7) + X_(9,_1,_7)
 + X_(9,_10,_7) + X_(9,_2,_7) + X_(9,_3,_7) + X_(9,_4,_7) + X_(9,_5,_7)
 + X_(9,_6,_7) + X_(9,_7,_7) + X_(9,_8,_7) + X_(9,_9,_7) <= 1
Things_can_be_Put_in_One_Truck_at_Most_(8,_10): X_(10,_0,_8) + X_(10,_1,_8)
 + X_(10,_10,_8) + X_(10,_2,_8) + X_(10,_3,_8) + X_(10,_4,_8) + X_(10,_5,_8)
 + X_(10,_6,_8) + X_(10,_7,_8) + X_(10,_8,_8) + X_(10,_9,_8) <= 1
Things_can_be_Put_in_One_Truck_at_Most_(8,_5): X_(5,_0,_8) + X_(5,_1,_8)
 + X_(5,_10,_8) + X_(5,_2,_8) + X_(5,_3,_8) + X_(5,_4,_8) + X_(5,_5,_8)
 + X_(5,_6,_8) + X_(5,_7,_8) + X_(5,_8,_8) + X_(5,_9,_8) <= 1
Things_can_be_Put_in_One_Truck_at_Most_(8,_6): X_(6,_0,_8) + X_(6,_1,_8)
 + X_(6,_10,_8) + X_(6,_2,_8) + X_(6,_3,_8) + X_(6,_4,_8) + X_(6,_5,_8)
 + X_(6,_6,_8) + X_(6,_7,_8) + X_(6,_8,_8) + X_(6,_9,_8) <= 1
Things_can_be_Put_in_One_Truck_at_Most_(8,_9): X_(9,_0,_8) + X_(9,_1,_8)
 + X_(9,_10,_8) + X_(9,_2,_8) + X_(9,_3,_8) + X_(9,_4,_8) + X_(9,_5,_8)
 + X_(9,_6,_8) + X_(9,_7,_8) + X_(9,_8,_8) + X_(9,_9,_8) <= 1
Truck_0Every_Truck_Finishes_Route_on_Depot: X_(10,_0,_0) + X_(5,_0,_0)
 + X_(6,_0,_0) + X_(9,_0,_0) = 1
Truck_1Every_Truck_Finishes_Route_on_Depot: X_(10,_1,_1) + X_(5,_1,_1)
 + X_(6,_1,_1) + X_(9,_1,_1) = 1
Truck_2Every_Truck_Finishes_Route_on_Depot: X_(10,_2,_2) + X_(5,_2,_2)
 + X_(6,_2,_2) + X_(9,_2,_2) = 1
Truck_3Every_Truck_Finishes_Route_on_Depot: X_(10,_3,_3) + X_(5,_3,_3)
 + X_(6,_3,_3) + X_(9,_3,_3) = 1
Truck_4Every_Truck_Finishes_Route_on_Depot: X_(10,_4,_4) + X_(5,_4,_4)
 + X_(6,_4,_4) + X_(9,_4,_4) = 1
Truck_7Every_Truck_Finishes_Route_on_Depot: X_(10,_7,_7) + X_(5,_7,_7)
 + X_(6,_7,_7) + X_(9,_7,_7) = 1
Truck_8Every_Truck_Finishes_Route_on_Depot: X_(10,_8,_8) + X_(5,_8,_8)
 + X_(6,_8,_8) + X_(9,_8,_8) = 1
Trucks_Free_Zone_Go_Somewhere_0: X_(10,_0,_0) + X_(10,_1,_0) + X_(10,_10,_0)
 + X_(10,_2,_0) + X_(10,_3,_0) + X_(10,_4,_0) + X_(10,_5,_0) + X_(10,_6,_0)
 + X_(10,_7,_0) + X_(10,_8,_0) + X_(10,_9,_0) = 1
Trucks_Free_Zone_Go_Somewhere_1: X_(10,_0,_1) + X_(10,_1,_1) + X_(10,_10,_1)
 + X_(10,_2,_1) + X_(10,_3,_1) + X_(10,_4,_1) + X_(10,_5,_1) + X_(10,_6,_1)
 + X_(10,_7,_1) + X_(10,_8,_1) + X_(10,_9,_1) = 1
Trucks_Free_Zone_Go_Somewhere_2: X_(10,_0,_2) + X_(10,_1,_2) + X_(10,_10,_2)
 + X_(10,_2,_2) + X_(10,_3,_2) + X_(10,_4,_2) + X_(10,_5,_2) + X_(10,_6,_2)
 + X_(10,_7,_2) + X_(10,_8,_2) + X_(10,_9,_2) = 1
Trucks_Free_Zone_Go_Somewhere_3: X_(10,_0,_3) + X_(10,_1,_3) + X_(10,_10,_3)
 + X_(10,_2,_3) + X_(10,_3,_3) + X_(10,_4,_3) + X_(10,_5,_3) + X_(10,_6,_3)
 + X_(10,_7,_3) + X_(10,_8,_3) + X_(10,_9,_3) = 1
Trucks_Free_Zone_Go_Somewhere_4: X_(10,_0,_4) + X_(10,_1,_4) + X_(10,_10,_4)
 + X_(10,_2,_4) + X_(10,_3,_4) + X_(10,_4,_4) + X_(10,_5,_4) + X_(10,_6,_4)
 + X_(10,_7,_4) + X_(10,_8,_4) + X_(10,_9,_4) = 1
Trucks_Free_Zone_Go_Somewhere_7: X_(10,_0,_7) + X_(10,_1,_7) + X_(10,_10,_7)
 + X_(10,_2,_7) + X_(10,_3,_7) + X_(10,_4,_7) + X_(10,_5,_7) + X_(10,_6,_7)
 + X_(10,_7,_7) + X_(10,_8,_7) + X_(10,_9,_7) = 1
Trucks_Free_Zone_Go_Somewhere_8: X_(10,_0,_8) + X_(10,_1,_8) + X_(10,_10,_8)
 + X_(10,_2,_8) + X_(10,_3,_8) + X_(10,_4,_8) + X_(10,_5,_8) + X_(10,_6,_8)
 + X_(10,_7,_8) + X_(10,_8,_8) + X_(10,_9,_8) = 1
Binaries
X_(10,_0,_0)
X_(10,_0,_1)
X_(10,_0,_2)
X_(10,_0,_3)
X_(10,_0,_4)
X_(10,_0,_7)
X_(10,_0,_8)
X_(10,_1,_0)
X_(10,_1,_1)
X_(10,_1,_2)
X_(10,_1,_3)
X_(10,_1,_4)
X_(10,_1,_7)
X_(10,_1,_8)
X_(10,_10,_0)
X_(10,_10,_1)
X_(10,_10,_2)
X_(10,_10,_3)
X_(10,_10,_4)
X_(10,_10,_7)
X_(10,_10,_8)
X_(10,_2,_0)
X_(10,_2,_1)
X_(10,_2,_2)
X_(10,_2,_3)
X_(10,_2,_4)
X_(10,_2,_7)
X_(10,_2,_8)
X_(10,_3,_0)
X_(10,_3,_1)
X_(10,_3,_2)
X_(10,_3,_3)
X_(10,_3,_4)
X_(10,_3,_7)
X_(10,_3,_8)
X_(10,_4,_0)
X_(10,_4,_1)
X_(10,_4,_2)
X_(10,_4,_3)
X_(10,_4,_4)
X_(10,_4,_7)
X_(10,_4,_8)
X_(10,_5,_0)
X_(10,_5,_1)
X_(10,_5,_2)
X_(10,_5,_3)
X_(10,_5,_4)
X_(10,_5,_7)
X_(10,_5,_8)
X_(10,_6,_0)
X_(10,_6,_1)
X_(10,_6,_2)
X_(10,_6,_3)
X_(10,_6,_4)
X_(10,_6,_7)
X_(10,_6,_8)
X_(10,_7,_0)
X_(10,_7,_1)
X_(10,_7,_2)
X_(10,_7,_3)
X_(10,_7,_4)
X_(10,_7,_7)
X_(10,_7,_8)
X_(10,_8,_0)
X_(10,_8,_1)
X_(10,_8,_2)
X_(10,_8,_3)
X_(10,_8,_4)
X_(10,_8,_7)
X_(10,_8,_8)
X_(10,_9,_0)
X_(10,_9,_1)
X_(10,_9,_2)
X_(10,_9,_3)
X_(10,_9,_4)
X_(10,_9,_7)
X_(10,_9,_8)
X_(5,_0,_0)
X_(5,_0,_1)
X_(5,_0,_2)
X_(5,_0,_3)
X_(5,_0,_4)
X_(5,_0,_7)
X_(5,_0,_8)
X_(5,_1,_0)
X_(5,_1,_1)
X_(5,_1,_2)
X_(5,_1,_3)
X_(5,_1,_4)
X_(5,_1,_7)
X_(5,_1,_8)
X_(5,_10,_0)
X_(5,_10,_1)
X_(5,_10,_2)
X_(5,_10,_3)
X_(5,_10,_4)
X_(5,_10,_7)
X_(5,_10,_8)
X_(5,_2,_0)
X_(5,_2,_1)
X_(5,_2,_2)
X_(5,_2,_3)
X_(5,_2,_4)
X_(5,_2,_7)
X_(5,_2,_8)
X_(5,_3,_0)
X_(5,_3,_1)
X_(5,_3,_2)
X_(5,_3,_3)
X_(5,_3,_4)
X_(5,_3,_7)
X_(5,_3,_8)
X_(5,_4,_0)
X_(5,_4,_1)
X_(5,_4,_2)
X_(5,_4,_3)
X_(5,_4,_4)
X_(5,_4,_7)
X_(5,_4,_8)
X_(5,_5,_0)
X_(5,_5,_1)
X_(5,_5,_2)
X_(5,_5,_3)
X_(5,_5,_4)
X_(5,_5,_7)
X_(5,_5,_8)
X_(5,_6,_0)
X_(5,_6,_1)
X_(5,_6,_2)
X_(5,_6,_3)
X_(5,_6,_4)
X_(5,_6,_7)
X_(5,_6,_8)
X_(5,_7,_0)
X_(5,_7,_1)
X_(5,_7,_2)
X_(5,_7,_3)
X_(5,_7,_4)
X_(5,_7,_7)
X_(5,_7,_8)
X_(5,_8,_0)
X_(5,_8,_1)
X_(5,_8,_2)
X_(5,_8,_3)
X_(5,_8,_4)
X_(5,_8,_7)
X_(5,_8,_8)
X_(5,_9,_0)
X_(5,_9,_1)
X_(5,_9,_2)
X_(5,_9,_3)
X_(5,_9,_4)
X_(5,_9,_7)
X_(5,_9,_8)
X_(6,_0,_0)
X_(6,_0,_1)
X_(6,_0,_2)
X_(6,_0,_3)
X_(6,_0,_4)
X_(6,_0,_7)
X_(6,_0,_8)
X_(6,_1,_0)
X_(6,_1,_1)
X_(6,_1,_2)
X_(6,_1,_3)
X_(6,_1,_4)
X_(6,_1,_7)
X_(6,_1,_8)
X_(6,_10,_0)
X_(6,_10,_1)
X_(6,_10,_2)
X_(6,_10,_3)
X_(6,_10,_4)
X_(6,_10,_7)
X_(6,_10,_8)
X_(6,_2,_0)
X_(6,_2,_1)
X_(6,_2,_2)
X_(6,_2,_3)
X_(6,_2,_4)
X_(6,_2,_7)
X_(6,_2,_8)
X_(6,_3,_0)
X_(6,_3,_1)
X_(6,_3,_2)
X_(6,_3,_3)
X_(6,_3,_4)
X_(6,_3,_7)
X_(6,_3,_8)
X_(6,_4,_0)
X_(6,_4,_1)
X_(6,_4,_2)
X_(6,_4,_3)
X_(6,_4,_4)
X_(6,_4,_7)
X_(6,_4,_8)
X_(6,_5,_0)
X_(6,_5,_1)
X_(6,_5,_2)
X_(6,_5,_3)
X_(6,_5,_4)
X_(6,_5,_7)
X_(6,_5,_8)
X_(6,_6,_0)
X_(6,_6,_1)
X_(6,_6,_2)
X_(6,_6,_3)
X_(6,_6,_4)
X_(6,_6,_7)
X_(6,_6,_8)
X_(6,_7,_0)
X_(6,_7,_1)
X_(6,_7,_2)
X_(6,_7,_3)
X_(6,_7,_4)
X_(6,_7,_7)
X_(6,_7,_8)
X_(6,_8,_0)
X_(6,_8,_1)
X_(6,_8,_2)
X_(6,_8,_3)
X_(6,_8,_4)
X_(6,_8,_7)
X_(6,_8,_8)
X_(6,_9,_0)
X_(6,_9,_1)
X_(6,_9,_2)
X_(6,_9,_3)
X_(6,_9,_4)
X_(6,_9,_7)
X_(6,_9,_8)
X_(9,_0,_0)
X_(9,_0,_1)
X_(9,_0,_2)
X_(9,_0,_3)
X_(9,_0,_4)
X_(9,_0,_7)
X_(9,_0,_8)
X_(9,_1,_0)
X_(9,_1,_1)
X_(9,_1,_2)
X_(9,_1,_3)
X_(9,_1,_4)
X_(9,_1,_7)
X_(9,_1,_8)
X_(9,_10,_0)
X_(9,_10,_1)
X_(9,_10,_2)
X_(9,_10,_3)
X_(9,_10,_4)
X_(9,_10,_7)
X_(9,_10,_8)
X_(9,_2,_0)
X_(9,_2,_1)
X_(9,_2,_2)
X_(9,_2,_3)
X_(9,_2,_4)
X_(9,_2,_7)
X_(9,_2,_8)
X_(9,_3,_0)
X_(9,_3,_1)
X_(9,_3,_2)
X_(9,_3,_3)
X_(9,_3,_4)
X_(9,_3,_7)
X_(9,_3,_8)
X_(9,_4,_0)
X_(9,_4,_1)
X_(9,_4,_2)
X_(9,_4,_3)
X_(9,_4,_4)
X_(9,_4,_7)
X_(9,_4,_8)
X_(9,_5,_0)
X_(9,_5,_1)
X_(9,_5,_2)
X_(9,_5,_3)
X_(9,_5,_4)
X_(9,_5,_7)
X_(9,_5,_8)
X_(9,_6,_0)
X_(9,_6,_1)
X_(9,_6,_2)
X_(9,_6,_3)
X_(9,_6,_4)
X_(9,_6,_7)
X_(9,_6,_8)
X_(9,_7,_0)
X_(9,_7,_1)
X_(9,_7,_2)
X_(9,_7,_3)
X_(9,_7,_4)
X_(9,_7,_7)
X_(9,_7,_8)
X_(9,_8,_0)
X_(9,_8,_1)
X_(9,_8,_2)
X_(9,_8,_3)
X_(9,_8,_4)
X_(9,_8,_7)
X_(9,_8,_8)
X_(9,_9,_0)
X_(9,_9,_1)
X_(9,_9,_2)
X_(9,_9,_3)
X_(9,_9,_4)
X_(9,_9,_7)
X_(9,_9,_8)
End
